NPROCS=0
This instance is clustered!
Gurobi Optimizer version 9.0.0 build v9.0.0rc2 (linux64)
Optimize a model with 24 rows, 145 columns and 288 nonzeros
Model fingerprint: 0xc547fc6c
Variable types: 1 continuous, 144 integer (144 binary)
Coefficient statistics:
  Matrix range     [1e+00, 1e+00]
  Objective range  [1e+00, 8e+01]
  Bounds range     [1e+00, 1e+00]
  RHS range        [1e+00, 1e+00]
Presolve removed 2 rows and 33 columns
Presolve time: 0.00s
Presolved: 22 rows, 112 columns, 222 nonzeros
Variable types: 1 continuous, 111 integer (111 binary)

Root relaxation: objective 1.212488e+02, 16 iterations, 0.00 seconds

    Nodes    |    Current Node    |     Objective Bounds      |     Work
 Expl Unexpl |  Obj  Depth IntInf | Incumbent    BestBd   Gap | It/Node Time

     0     0  171.68393    0   14          -  171.68393      -     -    0s
H    0     0                     471.0987771  171.68393  63.6%     -    0s
H    0     0                     296.2758455  171.68393  42.1%     -    0s
     0     0  174.53202    0    8  296.27585  174.53202  41.1%     -    0s
H    0     0                     290.0221182  174.53202  39.8%     -    0s
H    0     0                     257.9531065  174.53202  32.3%     -    0s
H    0     0                     225.4663925  174.53202  22.6%     -    0s
     0     0  174.53202    0    8  225.46639  174.53202  22.6%     -    0s
     0     0  176.12161    0    9  225.46639  176.12161  21.9%     -    0s
     0     0  177.02620    0   10  225.46639  177.02620  21.5%     -    0s
     0     0  177.02620    0   10  225.46639  177.02620  21.5%     -    0s
     0     2  180.50457    0   10  225.46639  180.50457  19.9%     -    0s

Cutting planes:
  Gomory: 1
  RLT: 1
  Lazy constraints: 294

Explored 1008 nodes (3119 simplex iterations) in 0.18 seconds
Thread count was 12 (of 12 available processors)

Solution count 5: 225.466 257.953 290.022 ... 471.099

Optimal solution found (tolerance 1.00e-04)
Best objective 2.254663925062e+02, best bound 2.254663925062e+02, gap 0.0000%

User-callback calls 2502, time in user-callback 0.02 sec
/projects/academic/josewalt/caigao/RRARP_BD/BendersDecomp/ret/model_outs/n_10_m_2_algo_2.out
 =====>>>>> Solution is written to file in <../ret/model_outs> !!!
===>> All Done!
